@relation Mall_Customers-weka.filters.unsupervised.attribute.Remove-R1-3

@attribute 'Annual Income (k$)' numeric
@attribute 'Spending Score (1-100)' numeric

@data
15,39
15,81
16,6
16,77
17,40
17,76
18,6
18,94
19,3
19,72
20,14
20,99
21,15
21,77
22,13
22,79
23,36
23,98
24,17
24,65
25,35
25,73
26,23
26,69
27,40
27,97
28,17
28,65
29,35
29,73
30,23
30,69
31,40
31,97
32,17
32,65
33,35
33,73
34,23
34,69
35,40
35,97
36,17
36,65
37,35
37,73
38,23
38,69
39,40
39,97
40,17
40,65
41,35
41,73
42,23
42,69
43,40
43,97
44,17
44,65
45,26
45,66
46,25
46,68
47,27
47,67
48,29
48,68
49,31
49,65
50,33
50,69
51,33
51,73
52,39
52,72
53,36
53,71
54,39
54,73
55,30
55,72
56,39
56,74
57,36
57,73
58,37
58,71
59,36
59,74
60,37
60,73
61,36
61,75
62,37
62,71
63,38
63,73
64,37
64,72
65,38
65,75
66,37
66,73
67,38
67,76
68,39
68,73
69,38
69,74
70,38
70,75
71,35
71,72
72,39
72,73
73,38
73,75
74,38
74,76
75,39
75,73
76,38
76,72
77,37
77,75
78,38
78,76
79,39
79,72
80,38
80,75
81,37
81,74
82,36
82,73
83,38
83,75
84,38
84,72
85,39
85,73
86,37
86,75
87,38
87,72
88,38
88,75
89,38
89,74
90,37
90,72
91,37
91,73
92,38
92,75
93,38
93,72
94,37
94,75
95,37
95,74
96,38
96,75
97,38
97,73
98,37
98,75
99,37
99,73
100,38
100,75
101,38
101,73
102,37
102,75
103,37
103,74
104,38
104,75
105,39
105,72
106,38
106,75
107,37
107,73
108,38
108,75
109,39
109,73
110,38
110,75
111,37
111,74
112,38
112,75
113,38
113,75
114,38
114,75
