@relation Mall_Customers-weka.filters.unsupervised.attribute.Remove-R1-3-weka.filters.unsupervised.attribute.Normalize-S1.0-T0.0

@attribute 'Annual Income (k$)' numeric
@attribute 'Spending Score (1-100)' numeric

@data
0,39
0,81
0.010101,6
0.010101,77
0.020202,40
0.020202,76
0.030303,6
0.030303,94
0.040404,3
0.040404,72
0.050505,14
0.050505,99
0.060606,15
0.060606,77
0.070707,13
0.070707,79
0.080808,36
0.080808,98
0.090909,17
0.090909,65
0.10101,35
0.10101,73
0.111111,23
0.111111,69
0.121212,40
0.121212,97
0.131313,17
0.131313,65
0.141414,35
0.141414,73
0.151515,23
0.151515,69
0.161616,40
0.161616,97
0.171717,17
0.171717,65
0.181818,35
0.181818,73
0.191919,23
0.191919,69
0.20202,40
0.20202,97
0.212121,17
0.212121,65
0.222222,35
0.222222,73
0.232323,23
0.232323,69
0.242424,40
0.242424,97
0.252525,17
0.252525,65
0.262626,35
0.262626,73
0.272727,23
0.272727,69
0.282828,40
0.282828,97
0.292929,17
0.292929,65
0.30303,26
0.30303,66
0.313131,25
0.313131,68
0.323232,27
0.323232,67
0.333333,29
0.333333,68
0.343434,31
0.343434,65
0.353535,33
0.353535,69
0.363636,33
0.363636,73
0.373737,39
0.373737,72
0.383838,36
0.383838,71
0.393939,39
0.393939,73
0.40404,30
0.40404,72
0.414141,39
0.414141,74
0.424242,36
0.424242,73
0.434343,37
0.434343,71
0.444444,36
0.444444,74
0.454545,37
0.454545,73
0.464646,36
0.464646,75
0.474747,37
0.474747,71
0.484848,38
0.484848,73
0.494949,37
0.494949,72
0.505051,38
0.505051,75
0.515152,37
0.515152,73
0.525253,38
0.525253,76
0.535354,39
0.535354,73
0.545455,38
0.545455,74
0.555556,38
0.555556,75
0.565657,35
0.565657,72
0.575758,39
0.575758,73
0.585859,38
0.585859,75
0.59596,38
0.59596,76
0.606061,39
0.606061,73
0.616162,38
0.616162,72
0.626263,37
0.626263,75
0.636364,38
0.636364,76
0.646465,39
0.646465,72
0.656566,38
0.656566,75
0.666667,37
0.666667,74
0.676768,36
0.676768,73
0.686869,38
0.686869,75
0.69697,38
0.69697,72
0.707071,39
0.707071,73
0.717172,37
0.717172,75
0.727273,38
0.727273,72
0.737374,38
0.737374,75
0.747475,38
0.747475,74
0.757576,37
0.757576,72
0.767677,37
0.767677,73
0.777778,38
0.777778,75
0.787879,38
0.787879,72
0.79798,37
0.79798,75
0.808081,37
0.808081,74
0.818182,38
0.818182,75
0.828283,38
0.828283,73
0.838384,37
0.838384,75
0.848485,37
0.848485,73
0.858586,38
0.858586,75
0.868687,38
0.868687,73
0.878788,37
0.878788,75
0.888889,37
0.888889,74
0.89899,38
0.89899,75
0.909091,39
0.909091,72
0.919192,38
0.919192,75
0.929293,37
0.929293,73
0.939394,38
0.939394,75
0.949495,39
0.949495,73
0.959596,38
0.959596,75
0.969697,37
0.969697,74
0.979798,38
0.979798,75
0.989899,38
0.989899,75
1,38
1,75
